NAME : PR225B
TYPE : PDTSP
DIMENSION : 225
EDGE_WEIGHT_TYPE : EUC_2D
NODE_COORD_SECTION
1 16000 1100
2 15000 1200
3 15000 1200
4 14000 1200
5 14000 1200
6 14000 1200
7 14000 1200
8 14000 1500
9 14000 1200
10 13000 1200
11 13000 1600
12 13000 1800
13 13000 1900
14 13000 1200
15 13000 1200
16 13000 1700
17 13000 1700
18 12000 1300
19 11000 1600
20 9700 1500
21 8000 1100
22 7000 1200
23 6900 1200
24 6800 1200
25 6500 1200
26 6400 1200
27 6300 1200
28 6300 1500
29 6000 1200
30 5800 1200
31 5800 1600
32 5800 1800
33 5800 1900
34 5700 1200
35 5500 1200
36 5400 1700
37 5000 1700
38 4400 1300
39 3800 1600
40 2100 1500
41 2100 3800
42 3800 2300
43 4400 3300
44 5000 2200
45 5400 2200
46 5500 2500
47 5500 3000
48 5800 2000
49 6300 2200
50 8000 2200
51 8700 2500
52 8700 2700
53 8700 2800
54 8700 2800
55 8700 3000
56 8700 3000
57 8700 3200
58 8700 3300
59 8700 3400
60 8700 3500
61 8700 3600
62 8700 3700
63 8700 3800
64 9700 3800
65 11000 2300
66 12000 3300
67 13000 2200
68 13000 2200
69 13000 2500
70 13000 3000
71 13000 2000
72 14000 2200
73 16000 2200
74 16000 2500
75 16000 2700
76 16000 2800
77 16000 2800
78 16000 3000
79 16000 3000
80 16000 3200
81 16000 3300
82 16000 3400
83 16000 3500
84 16000 3600
85 16000 3700
86 16000 3800
87 4900 6500
88 4900 6700
89 4900 6600
90 4900 6800
91 4900 6900
92 4900 7000
93 4900 7100
94 4900 7200
95 5000 6500
96 5000 6600
97 5000 6700
98 5000 6800
99 5000 6900
100 5000 7000
101 5000 7100
102 5000 7200
103 13000 6500
104 13000 6700
105 13000 6600
106 13000 6800
107 13000 6900
108 13000 7000
109 13000 7100
110 13000 7200
111 13000 6500
112 13000 6600
113 13000 6700
114 13000 6800
115 13000 6900
116 13000 7000
117 13000 7100
118 13000 7200
119 13000 8400
120 13000 8600
121 13000 8600
122 13000 8800
123 13000 8900
124 13000 9000
125 13000 9100
126 13000 8400
127 13000 8600
128 13000 8600
129 13000 8800
130 13000 9000
131 13000 8900
132 13000 9100
133 10000 8800
134 10000 8800
135 9900 8800
136 9800 8800
137 5000 8400
138 5000 8600
139 5000 8600
140 5000 8800
141 5000 8900
142 5000 9000
143 5000 9100
144 4900 8400
145 4900 8600
146 4900 8600
147 4900 8800
148 4900 9000
149 4900 8900
150 4900 9100
151 2400 8800
152 2300 8800
153 2200 8800
154 2100 8800
155 1900 12000
156 2000 12000
157 2100 12000
158 2500 12000
159 2600 12000
160 2700 12000
161 2800 12000
162 2900 12000
163 3000 12000
164 3100 12000
165 3400 12000
166 3500 12000
167 3600 12000
168 3700 12000
169 3800 12000
170 4100 12000
171 4200 12000
172 4300 12000
173 4400 12000
174 4500 12000
175 4600 12000
176 4700 12000
177 4800 12000
178 4900 12000
179 5000 12000
180 5400 12000
181 5500 12000
182 5600 12000
183 5700 12000
184 5800 12000
185 5900 12000
186 6000 12000
187 6100 12000
188 6200 12000
189 6300 12000
190 9500 12000
191 9600 12000
192 9700 12000
193 10000 12000
194 10000 12000
195 10000 12000
196 10000 12000
197 10000 12000
198 11000 12000
199 11000 12000
200 11000 12000
201 11000 12000
202 11000 12000
203 11000 12000
204 11000 12000
205 11000 12000
206 12000 12000
207 12000 12000
208 12000 12000
209 12000 12000
210 12000 12000
211 12000 12000
212 12000 12000
213 12000 12000
214 13000 12000
215 13000 12000
216 13000 12000
217 13000 12000
218 13000 12000
219 13000 12000
220 13000 12000
221 14000 12000
222 14000 12000
223 14000 12000
224 14000 12000
225 14000 12000
PICKUP_AND_DELIVERY_SECTION
1 0 0 0 0 0 0
2 0 0 0 0 81 0
3 0 0 0 0 0 4
4 0 0 0 0 3 0
5 0 0 0 0 12 0
6 0 0 0 0 216 0
7 0 0 0 0 83 0
8 0 0 0 0 0 17
9 0 0 0 0 0 16
10 0 0 0 0 0 14
11 0 0 0 0 67 0
12 0 0 0 0 0 5
13 0 0 0 0 71 0
14 0 0 0 0 10 0
15 0 0 0 0 18 0
16 0 0 0 0 9 0
17 0 0 0 0 8 0
18 0 0 0 0 0 15
19 0 0 0 0 69 0
20 0 0 0 0 0 59
21 0 0 0 0 0 22
22 0 0 0 0 21 0
23 0 0 0 0 39 0
24 0 0 0 0 0 62
25 0 0 0 0 0 29
26 0 0 0 0 33 0
27 0 0 0 0 0 55
28 0 0 0 0 0 48
29 0 0 0 0 25 0
30 0 0 0 0 0 38
31 0 0 0 0 0 43
32 0 0 0 0 0 35
33 0 0 0 0 0 26
34 0 0 0 0 44 0
35 0 0 0 0 32 0
36 0 0 0 0 0 45
37 0 0 0 0 150 0
38 0 0 0 0 30 0
39 0 0 0 0 0 23
40 0 0 0 0 42 0
41 0 0 0 0 87 0
42 0 0 0 0 0 40
43 0 0 0 0 31 0
44 0 0 0 0 0 34
45 0 0 0 0 36 0
46 0 0 0 0 49 0
47 0 0 0 0 0 100
48 0 0 0 0 28 0
49 0 0 0 0 0 46
50 0 0 0 0 0 53
51 0 0 0 0 0 143
52 0 0 0 0 0 191
53 0 0 0 0 50 0
54 0 0 0 0 177 0
55 0 0 0 0 27 0
56 0 0 0 0 63 0
57 0 0 0 0 0 61
58 0 0 0 0 60 0
59 0 0 0 0 20 0
60 0 0 0 0 0 58
61 0 0 0 0 57 0
62 0 0 0 0 24 0
63 0 0 0 0 0 56
64 0 0 0 0 66 0
65 0 0 0 0 0 72
66 0 0 0 0 0 64
67 0 0 0 0 0 11
68 0 0 0 0 70 0
69 0 0 0 0 0 19
70 0 0 0 0 0 68
71 0 0 0 0 0 13
72 0 0 0 0 65 0
73 0 0 0 0 78 0
74 0 0 0 0 0 84
75 0 0 0 0 0 76
76 0 0 0 0 75 0
77 0 0 0 0 79 0
78 0 0 0 0 0 73
79 0 0 0 0 0 77
80 0 0 0 0 148 0
81 0 0 0 0 0 2
82 0 0 0 0 0 151
83 0 0 0 0 0 7
84 0 0 0 0 74 0
85 0 0 0 0 86 0
86 0 0 0 0 0 85
87 0 0 0 0 0 41
88 0 0 0 0 0 90
89 0 0 0 0 138 0
90 0 0 0 0 88 0
91 0 0 0 0 102 0
92 0 0 0 0 0 97
93 0 0 0 0 154 0
94 0 0 0 0 0 99
95 0 0 0 0 137 0
96 0 0 0 0 98 0
97 0 0 0 0 92 0
98 0 0 0 0 0 96
99 0 0 0 0 94 0
100 0 0 0 0 47 0
101 0 0 0 0 178 0
102 0 0 0 0 0 91
103 0 0 0 0 105 0
104 0 0 0 0 118 0
105 0 0 0 0 0 103
106 0 0 0 0 0 211
107 0 0 0 0 0 133
108 0 0 0 0 125 0
109 0 0 0 0 116 0
110 0 0 0 0 0 127
111 0 0 0 0 113 0
112 0 0 0 0 0 129
113 0 0 0 0 0 111
114 0 0 0 0 115 0
115 0 0 0 0 0 114
116 0 0 0 0 0 109
117 0 0 0 0 218 0
118 0 0 0 0 0 104
119 0 0 0 0 0 131
120 0 0 0 0 0 223
121 0 0 0 0 0 136
122 0 0 0 0 0 130
123 0 0 0 0 132 0
124 0 0 0 0 0 134
125 0 0 0 0 0 108
126 0 0 0 0 0 135
127 0 0 0 0 110 0
128 0 0 0 0 206 0
129 0 0 0 0 112 0
130 0 0 0 0 122 0
131 0 0 0 0 119 0
132 0 0 0 0 0 123
133 0 0 0 0 107 0
134 0 0 0 0 124 0
135 0 0 0 0 126 0
136 0 0 0 0 121 0
137 0 0 0 0 0 95
138 0 0 0 0 0 89
139 0 0 0 0 0 152
140 0 0 0 0 0 149
141 0 0 0 0 0 146
142 0 0 0 0 145 0
143 0 0 0 0 51 0
144 0 0 0 0 0 153
145 0 0 0 0 0 142
146 0 0 0 0 141 0
147 0 0 0 0 0 182
148 0 0 0 0 0 80
149 0 0 0 0 140 0
150 0 0 0 0 0 37
151 0 0 0 0 82 0
152 0 0 0 0 139 0
153 0 0 0 0 144 0
154 0 0 0 0 0 93
155 0 0 0 0 157 0
156 0 0 0 0 165 0
157 0 0 0 0 0 155
158 0 0 0 0 159 0
159 0 0 0 0 0 158
160 0 0 0 0 162 0
161 0 0 0 0 0 164
162 0 0 0 0 0 160
163 0 0 0 0 0 172
164 0 0 0 0 161 0
165 0 0 0 0 0 156
166 0 0 0 0 0 173
167 0 0 0 0 170 0
168 0 0 0 0 0 180
169 0 0 0 0 187 0
170 0 0 0 0 0 167
171 0 0 0 0 181 0
172 0 0 0 0 163 0
173 0 0 0 0 166 0
174 0 0 0 0 0 188
175 0 0 0 0 179 0
176 0 0 0 0 0 186
177 0 0 0 0 0 54
178 0 0 0 0 0 101
179 0 0 0 0 0 175
180 0 0 0 0 168 0
181 0 0 0 0 0 171
182 0 0 0 0 147 0
183 0 0 0 0 0 184
184 0 0 0 0 183 0
185 0 0 0 0 0 189
186 0 0 0 0 176 0
187 0 0 0 0 0 169
188 0 0 0 0 174 0
189 0 0 0 0 185 0
190 0 0 0 0 193 0
191 0 0 0 0 52 0
192 0 0 0 0 0 197
193 0 0 0 0 0 190
194 0 0 0 0 205 0
195 0 0 0 0 201 0
196 0 0 0 0 0 199
197 0 0 0 0 192 0
198 0 0 0 0 0 215
199 0 0 0 0 196 0
200 0 0 0 0 0 202
201 0 0 0 0 0 195
202 0 0 0 0 200 0
203 0 0 0 0 213 0
204 0 0 0 0 207 0
205 0 0 0 0 0 194
206 0 0 0 0 0 128
207 0 0 0 0 0 204
208 0 0 0 0 0 210
209 0 0 0 0 214 0
210 0 0 0 0 208 0
211 0 0 0 0 106 0
212 0 0 0 0 220 0
213 0 0 0 0 0 203
214 0 0 0 0 0 209
215 0 0 0 0 198 0
216 0 0 0 0 0 6
217 0 0 0 0 0 222
218 0 0 0 0 0 117
219 0 0 0 0 221 0
220 0 0 0 0 0 212
221 0 0 0 0 0 219
222 0 0 0 0 217 0
223 0 0 0 0 120 0
224 0 0 0 0 0 225
225 0 0 0 0 224 0
DEPOT_SECTION
1 
-1
EOF
